Maximize

1 x_0 + 3 x_1 + 2 x_2 + 2 x_3 + 2 x_4 + 4 x_5 + 5 x_6 + 3 x_7 + 2 x_8 + 4 x_9 + 5 x_10 + 1 x_11 + 4 x_12 + 3 x_13 + 1 x_14


Subject To

a0: 1540.5 x_0 + 1434.0 x_1 + 1171.5 x_2 + 1351.6 x_3 + 1757.4 x_4 + 1146.6 x_5 + 1220.9 x_6 + 1275.9 x_7 + 1839.9 x_8 + 1345.3 x_9 + 1908.5 x_10 + 1597.2 x_11 + 1029.2 x_12 + 1596.4 x_13 + 1562.1 x_14 <= 14518
b0: x_2 + x_9 + x_11 >= 1
b1: x_0 + x_1 + x_3 + x_7 + x_10 + x_13 >= 1
b2: x_2 + x_4 + x_5 + x_12 + x_14 >= 1
b3: x_3 + x_5 + x_7 + x_13 + x_14 >= 1
b4: x_4 + x_8 + x_12 >= 1
b5: x_2 + x_3 >= 1
b6: x_0 + x_2 + x_3 + x_5 + x_7 + x_12 + x_14 >= 1
b7: x_1 + x_7 + x_14 >= 1
b8: x_4 + x_5 + x_10 + x_12 + x_13 >= 1
b9: x_1 + x_4 + x_5 + x_6 + x_8 + x_14 >= 1
b10: x_10 >= 1
b11: x_3 + x_4 + x_5 + x_7 + x_12 >= 1
c0: x_0 + x_1 <= 1
c1: x_0 + x_8 <= 1
c2: x_0 + x_11 <= 1
c3: x_1 + x_2 <= 1
c4: x_1 + x_10 <= 1
c5: x_1 + x_12 <= 1
c6: x_2 + x_12 <= 1
c7: x_3 + x_4 <= 1
c8: x_3 + x_9 <= 1
c9: x_4 + x_6 <= 1
c10: x_5 + x_7 <= 1
c11: x_5 + x_9 <= 1
c12: x_6 + x_13 <= 1
c13: x_7 + x_13 <= 1
c14: x_8 + x_14 <= 1




Binary

x_0 x_1 x_2 x_3 x_4 x_5 x_6 x_7 x_8 x_9 x_10 x_11 x_12 x_13 x_14

 


End
